
  32    4
  10   10   10   10

   0   0   0   0   0   1 2 
   6   1   0   1   1   1 3 
   3   2   0   6   5   1 4 
   8   1   1   3   0   3 31 30 5 
   9   3   7   0   4   1 6 
   4   6   0   5   7   1 7 
   6   4   5   4   0   1 8 
   8   6   3  10   0   1 9 
   2   4   4   3   0   1 10 
   8   5   3   0   6   1 11 
   7   3   4   3   0   1 12 
   4   0   6   5   5   1 13 
   7   5   3   3   0   2 29 14 
   9   0   3   4   2   1 15 
   9   4   6   0   3   1 16 
   6   4   0   4   3   1 17 
   4   5   2   0   4   1 18 
   3   6   4   0   2   1 19 
   5   3   0   5   5   1 20 
   1   3   0   2   4   1 21 
   9   0   4   4   4   1 22 
  10   7   3   3   0   1 23 
   9   2   3   2   0   1 24 
   7   3   4   5   0   1 25 
   6   8   0   1   2   1 26 
   9   2   0   6   5   1 27 
   8   4   0   6   4   1 28 
   1   4   5   6   0   1 32
   5   6   0   3   3   1 32
   4   2   5   0   7   1 32
   7   5   5   2   0   1 32
   0   0   0   0   0   0 
